10 6 18 15 4 14 11 8 17 12 9 19 16 5 2 7 3 1 0 13  
10 6 15 4 18 14 8 17 12 9 19 16 11 5 0 1 7 2 13 3  
10 6 18 15 4 14 8 17 11 12 0 1 5 9 19 2 7 3 13 16  
10 6 18 15 4 14 8 17 12 9 19 11 16 5 0 1 2 7 3 13  
10 6 18 11 4 14 8 15 17 12 9 13 16 5 2 7 0 1 3 19  
10 6 18 15 4 14 8 17 12 9 19 11 16 5 7 2 0 1 13 3  
10 6 18 15 4 14 11 8 17 12 9 19 16 5 0 2 13 7 1 3  
10 6 18 15 4 14 8 17 12 11 0 1 5 9 19 2 7 3 13 16  
10 6 15 5 18 17 8 14 12 11 0 9 19 4 1 7 13 2 16 3  
10 6 18 11 14 4 8 15 17 12 9 19 16 5 0 2 7 3 1 13  
10 6 18 15 4 14 11 17 8 12 5 9 13 16 7 2 0 1 3 19  
10 6 18 15 4 14 8 17 12 9 19 16 11 5 0 2 13 1 7 3  
10 6 18 15 4 14 11 8 17 12 9 19 16 5 0 13 7 2 3 1  
10 6 18 15 4 14 8 17 12 9 19 11 16 5 0 1 7 2 13 3  
10 6 15 5 18 17 8 14 12 0 11 9 19 4 1 7 13 2 16 3  
10 6 18 15 4 14 8 17 12 9 19 11 5 0 1 2 7 13 16 3  
10 6 18 15 4 14 8 17 12 9 19 11 5 0 1 2 7 13 16 3  
10 6 18 15 4 14 8 17 12 9 19 11 16 5 0 1 2 7 3 13  
10 6 18 15 4 14 8 17 12 9 13 11 16 5 0 1 7 2 19 3  
10 6 18 15 4 14 11 8 17 12 9 19 16 5 0 2 13 3 1 7  
10 6 18 15 4 14 8 17 12 9 19 11 16 5 0 13 2 7 3 1  
10 6 18 11 4 14 8 15 17 12 9 19 16 5 0 1 7 13 2 3  
10 6 18 11 4 14 8 15 17 12 9 19 16 5 0 2 13 7 3 1  
10 6 18 15 4 14 8 17 12 9 19 16 11 5 0 2 13 3 1 7  
10 6 18 15 4 14 11 8 17 12 9 19 16 5 0 13 7 2 1 3  
10 6 18 11 4 14 8 15 17 12 0 1 5 9 19 13 2 16 7 3  
10 6 18 15 4 14 8 0 12 9 19 11 5 17 1 7 2 13 16 3  
10 6 18 11 4 14 8 15 17 12 9 19 16 5 0 1 2 7 3 13  
10 6 18 15 4 14 8 11 17 12 0 19 16 5 9 2 13 7 1 3  
10 6 15 5 9 8 14 11 7 18 0 12 19 4 1 17 2 13 16 3  
10 6 18 15 4 14 8 17 12 9 19 11 16 5 0 2 3 1 7 13  
10 6 18 15 4 14 8 17 12 9 19 11 16 5 0 13 7 2 3 1  
10 6 18 15 4 14 8 0 12 9 11 19 5 17 1 7 2 13 16 3  
10 6 15 5 18 14 8 17 11 12 0 9 19 4 1 7 13 2 16 3  
